computational_data/solutions/ER_n40_p035_s0.sol
Optimal - objective value 7.00000000
      7 r_7                         1                       1
     26 r_26                        1                       1
     31 r_31                        1                       1
     56 b_16                        1                       1
     59 b_19                        1                       1
     69 b_29                        1                       1
     75 b_35                        1                       1
